decision_x1=[0,7];
decision_x2=[0,7];
decision_x3=[0,7];
decision_x4=[0,7];
decision_x5=[0,7];
decision_x6=[0,7];
decision_x7=[0,7];
decision_x8=[0,7];
decision_x9=[0,7];
decision_x10=[0,7];
decision_x11=[0,7];
decision_x12=[0,7];
decision_x13=[0,7];
decision_x14=[0,7];
random_y1=[0,7];
random_y2=[0,7];
random_y3=[0,7];
random_y4=[0,7];
random_y5=[0,7];
random_y6=[0,7];
constraint_x2_x1=[
0,0,8.8|
0,1,3.2|
0,2,5|
0,3,6|
0,4,5.4|
0,5,0.79|
0,6,0.79|
0,7,5.9|
1,0,0.18|
1,1,1.8|
1,2,1.5|
1,3,3.3|
1,4,6|
1,5,8.2|
1,6,6.6|
1,7,8.4|
2,0,3.5|
2,1,4.3|
2,2,1.2|
2,3,1.8|
2,4,5.7|
2,5,1.6|
2,6,4.5|
2,7,9.5|
3,0,9.6|
3,1,4.2|
3,2,5.3|
3,3,8.5|
3,4,8.1|
3,5,7.7|
3,6,1.4|
3,7,8.3|
4,0,2.8|
4,1,5.5|
4,2,4.7|
4,3,3.5|
4,4,0.93|
4,5,4.8|
4,6,2.7|
4,7,4.2|
5,0,2.4|
5,1,8.5|
5,2,9.2|
5,3,0.84|
5,4,8.5|
5,5,0.96|
5,6,3.5|
5,7,9.8|
6,0,3.1|
6,1,9.7|
6,2,9.4|
6,3,5.9|
6,4,0.46|
6,5,8.8|
6,6,4.2|
6,7,1.6|
7,0,3.4|
7,1,4.9|
7,2,2.1|
7,3,3.9|
7,4,7.5|
7,5,5.3|
7,6,2.6|
7,7,4|
];
constraint_x3_x2=[
0,0,0.72|
0,1,2.6|
0,2,4.2|
0,3,4.9|
0,4,6|
0,5,7.3|
0,6,6.9|
0,7,1.1|
1,0,6.7|
1,1,1.2|
1,2,7.6|
1,3,4.5|
1,4,4.2|
1,5,6.6|
1,6,9.9|
1,7,3|
2,0,2.1|
2,1,6.4|
2,2,7.1|
2,3,1.9|
2,4,7.6|
2,5,2.8|
2,6,0.94|
2,7,2.1|
3,0,4.8|
3,1,9.2|
3,2,9.4|
3,3,4|
3,4,8|
3,5,5.4|
3,6,0.33|
3,7,7.4|
4,0,9.5|
4,1,8.7|
4,2,6|
4,3,9.7|
4,4,4.3|
4,5,8.2|
4,6,0.072|
4,7,6.2|
5,0,2.7|
5,1,7.7|
5,2,2.5|
5,3,5.8|
5,4,0.75|
5,5,6.4|
5,6,7.1|
5,7,7.2|
6,0,9.5|
6,1,0.14|
6,2,7.1|
6,3,6.2|
6,4,8.6|
6,5,5.1|
6,6,9.9|
6,7,7.4|
7,0,9.2|
7,1,3.9|
7,2,5.7|
7,3,8.9|
7,4,2.2|
7,5,10|
7,6,6.2|
7,7,5.4|
];
constraint_x4_x3=[
0,0,7.3|
0,1,0.41|
0,2,1.4|
0,3,4.3|
0,4,7.3|
0,5,3.8|
0,6,2.9|
0,7,8.5|
1,0,3|
1,1,1.4|
1,2,4.4|
1,3,8.8|
1,4,0.7|
1,5,3.7|
1,6,8|
1,7,4.1|
2,0,7|
2,1,0.99|
2,2,8|
2,3,5.4|
2,4,3.8|
2,5,6.5|
2,6,4|
2,7,8.3|
3,0,9|
3,1,4.9|
3,2,6.9|
3,3,1|
3,4,2.2|
3,5,0.64|
3,6,8.2|
3,7,8.4|
4,0,7|
4,1,2.3|
4,2,0.39|
4,3,0.24|
4,4,7.2|
4,5,4.5|
4,6,4.5|
4,7,0.097|
5,0,1.7|
5,1,4.1|
5,2,5|
5,3,1.4|
5,4,6.7|
5,5,6.1|
5,6,4.9|
5,7,7.7|
6,0,9.6|
6,1,5.2|
6,2,2.1|
6,3,3.6|
6,4,2.2|
6,5,8|
6,6,6.4|
6,7,3.7|
7,0,9|
7,1,4.5|
7,2,9.1|
7,3,8.4|
7,4,1.2|
7,5,0.95|
7,6,7.6|
7,7,9.4|
];
constraint_x5_x1=[
0,0,4.5|
0,1,8.4|
0,2,1.5|
0,3,0.33|
0,4,4.2|
0,5,5.2|
0,6,5.3|
0,7,1.2|
1,0,8.7|
1,1,4.1|
1,2,7.5|
1,3,5|
1,4,2.2|
1,5,3.6|
1,6,0.45|
1,7,6.8|
2,0,0.25|
2,1,2.7|
2,2,2.5|
2,3,7.9|
2,4,3.4|
2,5,1|
2,6,3.1|
2,7,2|
3,0,8.5|
3,1,5.9|
3,2,5.4|
3,3,8.4|
3,4,0.6|
3,5,0.39|
3,6,0.099|
3,7,2.8|
4,0,7|
4,1,4.3|
4,2,5.7|
4,3,5.4|
4,4,1.1|
4,5,4.4|
4,6,9.2|
4,7,2.2|
5,0,0.65|
5,1,0.99|
5,2,1.2|
5,3,1.4|
5,4,1.4|
5,5,5.3|
5,6,1.5|
5,7,6.3|
6,0,0.24|
6,1,4.1|
6,2,7.5|
6,3,6|
6,4,2.6|
6,5,6.2|
6,6,3.1|
6,7,0.16|
7,0,8.6|
7,1,2.9|
7,2,1.4|
7,3,4.7|
7,4,6.2|
7,5,7.1|
7,6,6.8|
7,7,3.2|
];
constraint_x6_x2=[
0,0,0.77|
0,1,0.35|
0,2,0.26|
0,3,6.2|
0,4,1.5|
0,5,5.5|
0,6,6.1|
0,7,9.5|
1,0,4.3|
1,1,4.9|
1,2,7.9|
1,3,6.1|
1,4,6|
1,5,7.8|
1,6,5.4|
1,7,2.5|
2,0,4.5|
2,1,4.7|
2,2,1.2|
2,3,5.7|
2,4,4.4|
2,5,7.1|
2,6,3.8|
2,7,0.23|
3,0,7.9|
3,1,7.9|
3,2,7.7|
3,3,7.1|
3,4,0.8|
3,5,7.5|
3,6,0.21|
3,7,6.9|
4,0,5.6|
4,1,10|
4,2,2.3|
4,3,3.4|
4,4,4.1|
4,5,1.2|
4,6,0.061|
4,7,3.9|
5,0,7.6|
5,1,6.5|
5,2,5.2|
5,3,1.3|
5,4,2.5|
5,5,1.6|
5,6,2.4|
5,7,8.6|
6,0,9.5|
6,1,4.6|
6,2,5.1|
6,3,9.5|
6,4,2.8|
6,5,4.6|
6,6,9.8|
6,7,4.3|
7,0,7.6|
7,1,8.4|
7,2,7.2|
7,3,8.2|
7,4,8.6|
7,5,8.5|
7,6,8.7|
7,7,0.89|
];
constraint_x6_x5=[
0,0,5.9|
0,1,2.3|
0,2,5.1|
0,3,9|
0,4,2.3|
0,5,3.7|
0,6,9.2|
0,7,5|
1,0,7.8|
1,1,8|
1,2,8.6|
1,3,2.9|
1,4,8.4|
1,5,9.3|
1,6,9.4|
1,7,5.5|
2,0,5.2|
2,1,1.7|
2,2,4.7|
2,3,4.9|
2,4,3.6|
2,5,2.9|
2,6,7.4|
2,7,4.8|
3,0,9.6|
3,1,8.5|
3,2,8.9|
3,3,10|
3,4,7|
3,5,2.8|
3,6,2.6|
3,7,1.5|
4,0,5.9|
4,1,0.77|
4,2,8.2|
4,3,4.5|
4,4,5.3|
4,5,4.4|
4,6,3.2|
4,7,1.3|
5,0,9.9|
5,1,5.7|
5,2,9|
5,3,3.6|
5,4,9.1|
5,5,0.092|
5,6,2.5|
5,7,7.8|
6,0,6.4|
6,1,6.6|
6,2,5.6|
6,3,3.8|
6,4,1.1|
6,5,0.89|
6,6,2.6|
6,7,8.3|
7,0,8.6|
7,1,4.9|
7,2,9.2|
7,3,3|
7,4,6.7|
7,5,2.3|
7,6,3.1|
7,7,2|
];
constraint_x7_x3=[
0,0,5.8|
0,1,4.3|
0,2,5.2|
0,3,7.4|
0,4,1.5|
0,5,8.4|
0,6,8|
0,7,7.5|
1,0,3.7|
1,1,5.1|
1,2,5.5|
1,3,3.8|
1,4,9.4|
1,5,2.1|
1,6,0.13|
1,7,1.5|
2,0,3.2|
2,1,2.5|
2,2,1.6|
2,3,9.8|
2,4,0.15|
2,5,9.8|
2,6,9.3|
2,7,5.7|
3,0,9.3|
3,1,3|
3,2,5.6|
3,3,0.8|
3,4,3.9|
3,5,3.2|
3,6,7.5|
3,7,4.1|
4,0,6.7|
4,1,4.5|
4,2,6.7|
4,3,3.7|
4,4,4|
4,5,4|
4,6,5.6|
4,7,7.8|
5,0,2.5|
5,1,3.7|
5,2,8.2|
5,3,0.3|
5,4,2.4|
5,5,5.6|
5,6,3|
5,7,7|
6,0,10|
6,1,5.4|
6,2,0.46|
6,3,2.7|
6,4,7.4|
6,5,9.6|
6,6,7.7|
6,7,1.9|
7,0,6.9|
7,1,3.4|
7,2,0.76|
7,3,4.9|
7,4,9.7|
7,5,10|
7,6,7.1|
7,7,1.4|
];
constraint_x7_x6=[
0,0,7.6|
0,1,5.9|
0,2,9.5|
0,3,3.3|
0,4,0.13|
0,5,3|
0,6,8.2|
0,7,1.3|
1,0,1.2|
1,1,8.4|
1,2,5.7|
1,3,4|
1,4,8.8|
1,5,2.7|
1,6,2.4|
1,7,5.2|
2,0,5.5|
2,1,5|
2,2,0.67|
2,3,5.6|
2,4,7.2|
2,5,0.43|
2,6,5.4|
2,7,1.4|
3,0,3.9|
3,1,9.8|
3,2,2.5|
3,3,9.6|
3,4,0.98|
3,5,8.9|
3,6,8.1|
3,7,8.4|
4,0,8.1|
4,1,1.8|
4,2,4.1|
4,3,0.21|
4,4,0.79|
4,5,9.7|
4,6,0.61|
4,7,9.3|
5,0,6.1|
5,1,0.31|
5,2,0.73|
5,3,0.22|
5,4,1.4|
5,5,9.1|
5,6,4|
5,7,8.2|
6,0,8.2|
6,1,8.6|
6,2,3.6|
6,3,7.2|
6,4,7.7|
6,5,6.4|
6,6,1.9|
6,7,4.7|
7,0,6.9|
7,1,8|
7,2,6.6|
7,3,5.5|
7,4,0.76|
7,5,7.9|
7,6,2.6|
7,7,3.9|
];
constraint_x8_x4=[
0,0,3.9|
0,1,4.3|
0,2,2.1|
0,3,7.6|
0,4,3.9|
0,5,1.1|
0,6,2.8|
0,7,3.8|
1,0,0.86|
1,1,9|
1,2,3.1|
1,3,2.2|
1,4,5.2|
1,5,7|
1,6,0.26|
1,7,1.8|
2,0,9.8|
2,1,8|
2,2,8.7|
2,3,5.3|
2,4,8.4|
2,5,6.3|
2,6,5.6|
2,7,1.7|
3,0,6.2|
3,1,9|
3,2,2.8|
3,3,0.11|
3,4,4.7|
3,5,4.2|
3,6,0.87|
3,7,3.8|
4,0,8.3|
4,1,2.6|
4,2,9.2|
4,3,1.2|
4,4,0.00033|
4,5,8.3|
4,6,5.2|
4,7,9.4|
5,0,5.1|
5,1,6.5|
5,2,2.6|
5,3,5|
5,4,4.4|
5,5,3.5|
5,6,9.1|
5,7,7.9|
6,0,1.3|
6,1,8.3|
6,2,0.24|
6,3,8.5|
6,4,6.4|
6,5,9|
6,6,5.3|
6,7,7.2|
7,0,2.1|
7,1,3.7|
7,2,0.064|
7,3,9.1|
7,4,4.9|
7,5,6.5|
7,6,1.4|
7,7,0.87|
];
constraint_x8_x7=[
0,0,6.6|
0,1,4.2|
0,2,4.9|
0,3,7.1|
0,4,0.51|
0,5,0.91|
0,6,6.5|
0,7,4.2|
1,0,8.6|
1,1,9.3|
1,2,7.8|
1,3,3.7|
1,4,5.6|
1,5,1.7|
1,6,5.9|
1,7,2.9|
2,0,2.6|
2,1,6.7|
2,2,7.2|
2,3,3.8|
2,4,1.7|
2,5,1.5|
2,6,7.3|
2,7,9.8|
3,0,3.9|
3,1,2.4|
3,2,3.8|
3,3,3|
3,4,6.8|
3,5,6|
3,6,3.4|
3,7,1.3|
4,0,4.7|
4,1,5.5|
4,2,1.6|
4,3,9.1|
4,4,8.3|
4,5,5.6|
4,6,8.7|
4,7,2.3|
5,0,2.6|
5,1,5|
5,2,5.3|
5,3,2|
5,4,5.2|
5,5,8.4|
5,6,4.8|
5,7,2.3|
6,0,7.7|
6,1,6.3|
6,2,4|
6,3,6.8|
6,4,4.6|
6,5,3.8|
6,6,6|
6,7,0.67|
7,0,6.2|
7,1,0.42|
7,2,9.3|
7,3,9.9|
7,4,3.7|
7,5,4.5|
7,6,1.2|
7,7,0.59|
];
constraint_x9_x5=[
0,0,3.3|
0,1,6.3|
0,2,3|
0,3,7.3|
0,4,5.5|
0,5,2.7|
0,6,8.2|
0,7,0.29|
1,0,3.6|
1,1,1.7|
1,2,8.6|
1,3,9.1|
1,4,1.2|
1,5,6.9|
1,6,1.6|
1,7,9.7|
2,0,5.6|
2,1,8.6|
2,2,2|
2,3,7.4|
2,4,9|
2,5,9|
2,6,1.1|
2,7,0.16|
3,0,5.8|
3,1,9.8|
3,2,5.5|
3,3,3.7|
3,4,5.3|
3,5,1.5|
3,6,4.5|
3,7,1.8|
4,0,4.2|
4,1,3.7|
4,2,5|
4,3,3.9|
4,4,0.035|
4,5,3.9|
4,6,2|
4,7,7.9|
5,0,2.9|
5,1,7.2|
5,2,9.5|
5,3,5.4|
5,4,7.9|
5,5,0.63|
5,6,3.3|
5,7,9.4|
6,0,6.8|
6,1,7.5|
6,2,8.6|
6,3,5.1|
6,4,0.73|
6,5,9.6|
6,6,7.8|
6,7,8.9|
7,0,9.9|
7,1,0.24|
7,2,0.59|
7,3,4.4|
7,4,9.4|
7,5,2.2|
7,6,1.1|
7,7,4.1|
];
constraint_x10_x6=[
0,0,7|
0,1,6.6|
0,2,5.5|
0,3,7.9|
0,4,0.62|
0,5,0.55|
0,6,5|
0,7,8.2|
1,0,2.9|
1,1,6.4|
1,2,3.3|
1,3,7.8|
1,4,6.8|
1,5,4.6|
1,6,7.1|
1,7,9.7|
2,0,7.5|
2,1,3.4|
2,2,5.9|
2,3,7.2|
2,4,6.4|
2,5,5.3|
2,6,1.7|
2,7,5|
3,0,8.2|
3,1,7.2|
3,2,3.9|
3,3,1.1|
3,4,7.4|
3,5,2|
3,6,3|
3,7,7.8|
4,0,8.3|
4,1,1.9|
4,2,5.5|
4,3,3.4|
4,4,3.9|
4,5,7.2|
4,6,1.6|
4,7,5.8|
5,0,1.4|
5,1,4.5|
5,2,4.3|
5,3,4.8|
5,4,0.67|
5,5,2.3|
5,6,2.4|
5,7,2|
6,0,8|
6,1,4.8|
6,2,4.8|
6,3,7.8|
6,4,7.9|
6,5,7.6|
6,6,8.2|
6,7,9.6|
7,0,0.18|
7,1,1.6|
7,2,8|
7,3,2.5|
7,4,3.9|
7,5,7.7|
7,6,0.064|
7,7,0.0077|
];
constraint_x10_x9=[
0,0,2.7|
0,1,8|
0,2,3.2|
0,3,1.8|
0,4,0.4|
0,5,2.4|
0,6,4.7|
0,7,5.3|
1,0,8.3|
1,1,3.8|
1,2,6.3|
1,3,5.1|
1,4,7.5|
1,5,4.1|
1,6,2|
1,7,7|
2,0,4|
2,1,8.1|
2,2,9.3|
2,3,7.5|
2,4,3.5|
2,5,2|
2,6,2.6|
2,7,10|
3,0,3.8|
3,1,6.6|
3,2,6.4|
3,3,4.7|
3,4,9.7|
3,5,1.8|
3,6,2.8|
3,7,5.7|
4,0,0.78|
4,1,2.7|
4,2,3.1|
4,3,4|
4,4,3.1|
4,5,3.3|
4,6,6.4|
4,7,1.4|
5,0,1.6|
5,1,7.8|
5,2,2.5|
5,3,8.6|
5,4,4.5|
5,5,3.6|
5,6,9.4|
5,7,2|
6,0,9.3|
6,1,0.42|
6,2,7.4|
6,3,2|
6,4,1.7|
6,5,9|
6,6,8.4|
6,7,7.1|
7,0,5.9|
7,1,1.4|
7,2,1.5|
7,3,9.4|
7,4,4.3|
7,5,6.3|
7,6,6.4|
7,7,2.3|
];
constraint_x11_x7=[
0,0,6.6|
0,1,7.7|
0,2,5.2|
0,3,7.9|
0,4,2.5|
0,5,2.1|
0,6,6.7|
0,7,5.5|
1,0,4.4|
1,1,3|
1,2,2.6|
1,3,0.09|
1,4,5.4|
1,5,7.2|
1,6,4.7|
1,7,8.5|
2,0,6|
2,1,6.1|
2,2,5.2|
2,3,0.39|
2,4,8.7|
2,5,3.3|
2,6,2.6|
2,7,8.8|
3,0,5.7|
3,1,4.3|
3,2,7.3|
3,3,1.7|
3,4,2.7|
3,5,1.6|
3,6,7|
3,7,1.8|
4,0,4.4|
4,1,1|
4,2,3.6|
4,3,8.3|
4,4,3.1|
4,5,9.8|
4,6,6|
4,7,4.1|
5,0,8.2|
5,1,2.5|
5,2,7|
5,3,4|
5,4,1.2|
5,5,8.7|
5,6,4.1|
5,7,2.2|
6,0,4.2|
6,1,0.41|
6,2,4|
6,3,3.1|
6,4,7.5|
6,5,2|
6,6,5.2|
6,7,9.7|
7,0,1.8|
7,1,5.7|
7,2,7.1|
7,3,8.9|
7,4,6.9|
7,5,4.2|
7,6,5.1|
7,7,4.3|
];
constraint_x11_x10=[
0,0,0.52|
0,1,3.1|
0,2,6.1|
0,3,4.6|
0,4,8.9|
0,5,4.7|
0,6,2.7|
0,7,9.1|
1,0,5.2|
1,1,8.9|
1,2,2.9|
1,3,2.9|
1,4,8.8|
1,5,6.6|
1,6,1.3|
1,7,6.4|
2,0,5|
2,1,8.8|
2,2,1.1|
2,3,3.9|
2,4,4.8|
2,5,3.5|
2,6,1.5|
2,7,9.4|
3,0,7.6|
3,1,9|
3,2,0.68|
3,3,2.8|
3,4,2.1|
3,5,3.4|
3,6,0.034|
3,7,2|
4,0,1.9|
4,1,5.7|
4,2,5.2|
4,3,6.3|
4,4,5.8|
4,5,6.6|
4,6,5.4|
4,7,3.8|
5,0,9.6|
5,1,4.8|
5,2,2|
5,3,7.5|
5,4,9.6|
5,5,8.7|
5,6,5.3|
5,7,3.7|
6,0,9.2|
6,1,6.1|
6,2,4.5|
6,3,6.4|
6,4,0.94|
6,5,6.5|
6,6,6.1|
6,7,9.5|
7,0,7.4|
7,1,0.22|
7,2,1.9|
7,3,3.7|
7,4,8.9|
7,5,0.25|
7,6,8.1|
7,7,0.1|
];
constraint_x12_x8=[
0,0,7.2|
0,1,9.4|
0,2,9.2|
0,3,3.6|
0,4,3.9|
0,5,6.2|
0,6,0.78|
0,7,9.3|
1,0,1.8|
1,1,4.4|
1,2,3.2|
1,3,1.4|
1,4,9|
1,5,5.7|
1,6,1.8|
1,7,7|
2,0,5.1|
2,1,0.39|
2,2,3.9|
2,3,4.6|
2,4,9.2|
2,5,1.7|
2,6,5.2|
2,7,0.86|
3,0,6.8|
3,1,9.7|
3,2,2.3|
3,3,0.96|
3,4,5.8|
3,5,6.5|
3,6,4.4|
3,7,8.8|
4,0,4.6|
4,1,2.8|
4,2,8.4|
4,3,7.6|
4,4,2.5|
4,5,8|
4,6,9.8|
4,7,3.2|
5,0,5.9|
5,1,1.6|
5,2,6.1|
5,3,9.2|
5,4,6.5|
5,5,8.5|
5,6,3.3|
5,7,6.5|
6,0,1.2|
6,1,5.2|
6,2,2.6|
6,3,8.2|
6,4,1.5|
6,5,6.9|
6,6,4.1|
6,7,6.9|
7,0,0.52|
7,1,6.2|
7,2,7.6|
7,3,4.5|
7,4,8.1|
7,5,5.4|
7,6,6.6|
7,7,2.5|
];
constraint_x12_x11=[
0,0,6.2|
0,1,9.6|
0,2,8.1|
0,3,8.4|
0,4,4.7|
0,5,4.1|
0,6,4.3|
0,7,2.7|
1,0,9.5|
1,1,4.5|
1,2,2.1|
1,3,7.2|
1,4,6.7|
1,5,8.5|
1,6,8.7|
1,7,4.2|
2,0,8.9|
2,1,1.8|
2,2,8.7|
2,3,1.3|
2,4,6.6|
2,5,5|
2,6,9.4|
2,7,0.54|
3,0,8.1|
3,1,7.8|
3,2,1.6|
3,3,0.86|
3,4,1.9|
3,5,6.3|
3,6,1.2|
3,7,6.7|
4,0,4.6|
4,1,1.9|
4,2,6.9|
4,3,3.3|
4,4,5.3|
4,5,0.3|
4,6,4.6|
4,7,1.2|
5,0,6.5|
5,1,5.3|
5,2,5.8|
5,3,3.5|
5,4,1.3|
5,5,7.3|
5,6,2.9|
5,7,2.3|
6,0,5|
6,1,3.7|
6,2,3.6|
6,3,0.95|
6,4,2|
6,5,8.9|
6,6,4.3|
6,7,7.9|
7,0,4|
7,1,7.1|
7,2,4.1|
7,3,0.28|
7,4,3.4|
7,5,8.2|
7,6,5.6|
7,7,2.8|
];
constraint_x13_x9=[
0,0,2|
0,1,7.3|
0,2,1.4|
0,3,9.9|
0,4,5.1|
0,5,1.7|
0,6,7|
0,7,1.6|
1,0,7.8|
1,1,8.5|
1,2,9.6|
1,3,9.3|
1,4,9.4|
1,5,8.5|
1,6,6.5|
1,7,4.8|
2,0,1.5|
2,1,2.1|
2,2,0.71|
2,3,8.1|
2,4,7.4|
2,5,5.7|
2,6,8.8|
2,7,3.1|
3,0,2.9|
3,1,3|
3,2,6.3|
3,3,0.1|
3,4,9.4|
3,5,2.1|
3,6,2.4|
3,7,0.58|
4,0,1.1|
4,1,6.5|
4,2,1.7|
4,3,9.9|
4,4,6|
4,5,3.7|
4,6,5.4|
4,7,4.3|
5,0,4.1|
5,1,4.2|
5,2,1.5|
5,3,2.8|
5,4,1.4|
5,5,6.8|
5,6,4.6|
5,7,0.3|
6,0,8.2|
6,1,7.3|
6,2,3.2|
6,3,3.1|
6,4,7.8|
6,5,1.1|
6,6,9.3|
6,7,8.8|
7,0,4.8|
7,1,5.2|
7,2,9|
7,3,2|
7,4,2.5|
7,5,5.7|
7,6,2.2|
7,7,5.6|
];
constraint_x14_x10=[
0,0,0.51|
0,1,4.9|
0,2,6.8|
0,3,9.4|
0,4,3.1|
0,5,0.92|
0,6,6.2|
0,7,3|
1,0,5.8|
1,1,9.4|
1,2,4.4|
1,3,0.11|
1,4,8|
1,5,0.59|
1,6,4.3|
1,7,2.3|
2,0,6.2|
2,1,0.82|
2,2,0.22|
2,3,2.5|
2,4,6.8|
2,5,6.9|
2,6,1.3|
2,7,5.7|
3,0,3.8|
3,1,2.5|
3,2,9.1|
3,3,8.5|
3,4,1.7|
3,5,6.8|
3,6,1.6|
3,7,6.9|
4,0,4.9|
4,1,9.9|
4,2,4.7|
4,3,2.8|
4,4,8.9|
4,5,8.2|
4,6,8.8|
4,7,2.2|
5,0,1.7|
5,1,7.9|
5,2,1.5|
5,3,1.9|
5,4,0.53|
5,5,8.2|
5,6,8.8|
5,7,7.9|
6,0,6|
6,1,8.9|
6,2,0.51|
6,3,0.35|
6,4,8.4|
6,5,9.6|
6,6,0.63|
6,7,0.97|
7,0,2.6|
7,1,7.4|
7,2,2.4|
7,3,8.5|
7,4,4.9|
7,5,4.6|
7,6,8.9|
7,7,10|
];
constraint_x1_y1=[
0,0,1.4|
0,1,2.7|
0,2,0.69|
0,3,3.3|
0,4,4.7|
0,5,5|
0,6,6.7|
0,7,7.6|
1,0,0.34|
1,1,0.69|
1,2,3.8|
1,3,5|
1,4,1.2|
1,5,4|
1,6,5.7|
1,7,3.6|
2,0,0.29|
2,1,0.69|
2,2,4.7|
2,3,9.3|
2,4,9|
2,5,4.7|
2,6,2.5|
2,7,3|
3,0,8.4|
3,1,6.4|
3,2,0.79|
3,3,8.4|
3,4,6.8|
3,5,4.5|
3,6,9|
3,7,5.8|
4,0,8|
4,1,8.6|
4,2,2.2|
4,3,2|
4,4,7.5|
4,5,0.43|
4,6,4.4|
4,7,6.8|
5,0,0.41|
5,1,5.1|
5,2,9|
5,3,5.4|
5,4,5.1|
5,5,9.3|
5,6,6.3|
5,7,2.3|
6,0,4.9|
6,1,3|
6,2,6.5|
6,3,7.1|
6,4,3.4|
6,5,1.5|
6,6,9.4|
6,7,9.4|
7,0,6.3|
7,1,7.6|
7,2,5.7|
7,3,6.6|
7,4,7.6|
7,5,4.5|
7,6,6.6|
7,7,8.6|
];
constraint_x2_y2=[
0,0,0.16|
0,1,9|
0,2,5.1|
0,3,5.8|
0,4,3.6|
0,5,6.7|
0,6,9|
0,7,8.6|
1,0,5.3|
1,1,2.5|
1,2,6.8|
1,3,7.7|
1,4,1.2|
1,5,1.4|
1,6,3.6|
1,7,3.5|
2,0,0.88|
2,1,9.3|
2,2,0.29|
2,3,1.8|
2,4,2.5|
2,5,1.4|
2,6,8.6|
2,7,2.7|
3,0,3.9|
3,1,1.2|
3,2,1.3|
3,3,4.7|
3,4,6.4|
3,5,1.5|
3,6,6.9|
3,7,6.6|
4,0,2.6|
4,1,1.3|
4,2,1.9|
4,3,5.7|
4,4,4.9|
4,5,8.4|
4,6,0.87|
4,7,6.4|
5,0,9.2|
5,1,5.3|
5,2,4.9|
5,3,0.96|
5,4,8|
5,5,9.9|
5,6,6.4|
5,7,7.4|
6,0,1.1|
6,1,4.3|
6,2,2.1|
6,3,0.12|
6,4,6.8|
6,5,1|
6,6,8.5|
6,7,5.7|
7,0,9.1|
7,1,5.4|
7,2,9|
7,3,2.6|
7,4,2.1|
7,5,3.8|
7,6,6.3|
7,7,0.74|
];
constraint_x3_y3=[
0,0,4.1|
0,1,8.6|
0,2,4.9|
0,3,7.1|
0,4,8.4|
0,5,0.83|
0,6,9.3|
0,7,6.9|
1,0,4.5|
1,1,4.4|
1,2,6|
1,3,4.8|
1,4,8.9|
1,5,2.1|
1,6,6.9|
1,7,5.5|
2,0,8.3|
2,1,7.3|
2,2,3.2|
2,3,5.6|
2,4,9.3|
2,5,8.1|
2,6,7.3|
2,7,0.86|
3,0,3.7|
3,1,7.2|
3,2,2.6|
3,3,8|
3,4,4.4|
3,5,0.38|
3,6,0.4|
3,7,5.3|
4,0,7.7|
4,1,6.5|
4,2,8|
4,3,0.7|
4,4,6.4|
4,5,5.2|
4,6,8.5|
4,7,8.7|
5,0,5.9|
5,1,9.1|
5,2,6.4|
5,3,4.9|
5,4,7.7|
5,5,6.2|
5,6,7.1|
5,7,3.4|
6,0,9.1|
6,1,7.9|
6,2,8.3|
6,3,9.3|
6,4,8.7|
6,5,8.9|
6,6,9|
6,7,5.1|
7,0,9.5|
7,1,0.81|
7,2,7|
7,3,5.4|
7,4,5.8|
7,5,3.2|
7,6,0.31|
7,7,0.6|
];
constraint_x4_y4=[
0,0,3.7|
0,1,1|
0,2,1.1|
0,3,3.8|
0,4,2.9|
0,5,4.4|
0,6,8.7|
0,7,7.5|
1,0,3|
1,1,9.8|
1,2,3.3|
1,3,6.4|
1,4,9.1|
1,5,2.2|
1,6,4.2|
1,7,2.7|
2,0,5.4|
2,1,3.7|
2,2,8.8|
2,3,2|
2,4,0.038|
2,5,9.5|
2,6,2.6|
2,7,7.9|
3,0,2.7|
3,1,8.6|
3,2,3.5|
3,3,8.8|
3,4,8.9|
3,5,6.7|
3,6,3.2|
3,7,1.4|
4,0,0.37|
4,1,2.4|
4,2,1.1|
4,3,8.6|
4,4,1.4|
4,5,0.089|
4,6,9.3|
4,7,2.8|
5,0,2.3|
5,1,5.7|
5,2,0.65|
5,3,0.85|
5,4,8.7|
5,5,1.6|
5,6,9.7|
5,7,4.3|
6,0,6.7|
6,1,6|
6,2,6|
6,3,5.2|
6,4,9.3|
6,5,7.1|
6,6,9.8|
6,7,4|
7,0,1.8|
7,1,0.89|
7,2,8.9|
7,3,6.6|
7,4,2.7|
7,5,3.6|
7,6,3.7|
7,7,8.2|
];
constraint_x5_y5=[
0,0,10|
0,1,9.6|
0,2,8.7|
0,3,3.3|
0,4,6.4|
0,5,5.1|
0,6,1.6|
0,7,4.7|
1,0,3.8|
1,1,4.4|
1,2,6.7|
1,3,4.9|
1,4,1.1|
1,5,5.9|
1,6,0.47|
1,7,0.38|
2,0,8.4|
2,1,9.6|
2,2,5.9|
2,3,2.2|
2,4,6.5|
2,5,3.5|
2,6,3|
2,7,3.6|
3,0,0.87|
3,1,5.4|
3,2,3.2|
3,3,4.9|
3,4,7|
3,5,1.8|
3,6,3.7|
3,7,9.8|
4,0,7.8|
4,1,4.8|
4,2,5.9|
4,3,7.5|
4,4,6.9|
4,5,3.4|
4,6,2.3|
4,7,3.9|
5,0,5.9|
5,1,0.31|
5,2,0.0066|
5,3,7.5|
5,4,2.6|
5,5,8.8|
5,6,4.6|
5,7,9|
6,0,2.6|
6,1,1.7|
6,2,7.6|
6,3,8.2|
6,4,6.6|
6,5,5.5|
6,6,0.74|
6,7,9.1|
7,0,7.8|
7,1,4.6|
7,2,7.9|
7,3,2.6|
7,4,5.2|
7,5,6.1|
7,6,1.9|
7,7,10|
];
constraint_x6_y6=[
0,0,2.1|
0,1,4.8|
0,2,1.8|
0,3,3.7|
0,4,0.97|
0,5,8.1|
0,6,8.1|
0,7,0.097|
1,0,6.1|
1,1,5.8|
1,2,0.29|
1,3,0.83|
1,4,3|
1,5,8.7|
1,6,6.6|
1,7,7.6|
2,0,5.7|
2,1,8.7|
2,2,6.5|
2,3,9.1|
2,4,9.7|
2,5,4.4|
2,6,7.4|
2,7,3.7|
3,0,9.2|
3,1,8.8|
3,2,0.32|
3,3,9.8|
3,4,2.3|
3,5,4.7|
3,6,9.1|
3,7,8.9|
4,0,9.5|
4,1,2.8|
4,2,8.1|
4,3,4.7|
4,4,6.2|
4,5,7.2|
4,6,2.2|
4,7,0.29|
5,0,0.96|
5,1,5|
5,2,8.2|
5,3,1.2|
5,4,1.5|
5,5,6.4|
5,6,6.4|
5,7,1.3|
6,0,4.8|
6,1,4.7|
6,2,7.4|
6,3,1.3|
6,4,1.3|
6,5,1.3|
6,6,5.7|
6,7,2.2|
7,0,5.4|
7,1,8.2|
7,2,0.45|
7,3,8.5|
7,4,4.3|
7,5,3.9|
7,6,6.6|
7,7,3|
];
initial_distribution_y1=[0.13,0.17,0.022,0.14,0.034,0.15,0.18,0.18];
initial_distribution_y2=[0.11,0.076,0.025,0.11,0.2,0.073,0.19,0.21];
initial_distribution_y3=[0.053,0.026,0.16,0.14,0.071,0.24,0.08,0.23];
initial_distribution_y4=[0.19,0.11,0.018,0.061,0.12,0.28,0.19,0.042];
initial_distribution_y5=[0.2,0.23,0.085,0.1,0.068,0.071,0.17,0.067];
initial_distribution_y6=[0.03,0.057,0.23,0.17,0.012,0.19,0.096,0.21];
transition_y1=[
0.047,0.21,0.2,0.19,0.01,0.091,0.18,0.073|
0.2,0.094,0.098,0.088,0.15,0.091,0.09,0.19|
0.18,0.038,0.13,0.18,0.18,0.17,0.088,0.028|
0.18,0.083,0.077,0.15,0.12,0.18,0.14,0.075|
0.16,0.2,0.2,0.16,0.052,0.11,0.085,0.028|
0.027,0.21,0.14,0.056,0.16,0.034,0.2,0.18|
0.21,0.21,0.18,0.035,0.023,0.066,0.14,0.15|
0.12,0.082,0.042,0.085,0.36,0.029,0.09,0.19|
];
transition_y2=[
0.098,0.16,0.032,0.036,0.079,0.15,0.21,0.23|
0.22,0.062,0.035,0.084,0.22,0.061,0.21,0.11|
0.061,0.1,0.082,0.21,0.072,0.21,0.16,0.1|
0.16,0.086,0.12,0.2,0.17,0.1,0.057,0.11|
0.23,0.12,0.0085,0.024,0.07,0.27,0.27,0.0097|
0.26,0.25,0.098,0.069,0.23,0.04,0.029,0.016|
0.033,0.063,0.18,0.23,0.091,0.16,0.036,0.2|
0.16,0.017,0.095,0.23,0.16,0.052,0.071,0.22|
];
transition_y3=[
0.092,0.0054,0.0037,0.12,0.2,0.21,0.18,0.18|
0.1,0.076,0.22,0.12,0.21,0.18,0.059,0.027|
0.095,0.0071,0.31,0.085,0.1,0.14,0.23,0.036|
0.042,0.26,0.032,0.21,0.18,0.078,0.1,0.089|
0.2,0.024,0.2,0.12,0.087,0.037,0.18,0.15|
0.044,0.19,0.1,0.23,0.096,0.1,0.16,0.079|
0.015,0.039,0.24,0.068,0.14,0.22,0.18,0.1|
0.17,0.051,0.23,0.15,0.061,0.13,0.19,0.011|
];
transition_y4=[
0.11,0.07,0.012,0.13,0.17,0.22,0.13,0.15|
0.12,0.15,0.12,0.13,0.091,0.073,0.19,0.14|
0.13,0.23,0.056,0.16,0.051,0.13,0.15,0.088|
0.22,0.15,0.12,0.34,0.078,0.052,0.0069,0.033|
0.11,0.092,0.041,0.1,0.22,0.0081,0.19,0.24|
0.13,0.2,0.18,0.084,0.023,0.089,0.11,0.18|
0.11,0.17,0.036,0.14,0.18,0.11,0.041,0.22|
0.17,0.019,0.078,0.23,0.28,0.013,0.021,0.2|
];
transition_y5=[
0.005,0.082,0.13,0.2,0.11,0.13,0.19,0.17|
0.22,0.03,0.15,0.099,0.18,0.14,0.038,0.15|
0.083,0.14,0.16,0.16,0.027,0.13,0.2,0.11|
0.29,0.078,0.19,0.2,0.094,0.028,0.064,0.053|
0.21,0.13,0.12,0.042,0.11,0.16,0.21,0.018|
0.15,0.16,0.16,0.024,0.055,0.21,0.2,0.047|
0.1,0.1,0.17,0.18,0.057,0.18,0.16,0.045|
0.043,0.13,0.12,0.17,0.17,0.036,0.14,0.19|
];
transition_y6=[
0.15,0.12,0.086,0.17,0.1,0.14,0.16,0.079|
0.11,0.17,0.21,0.18,0.046,0.16,0.057,0.074|
0.12,0.15,0.15,0.1,0.11,0.17,0.028,0.17|
0.18,0.21,0.16,0.031,0.072,0.041,0.17,0.14|
0.17,0.11,0.17,0.075,0.18,0.14,0.033,0.12|
0.16,0.16,0.056,0.086,0.16,0.096,0.15,0.14|
0.076,0.061,0.0044,0.12,0.15,0.21,0.17,0.21|
0.076,0.31,0.18,0.048,0.077,0.052,0.11,0.15|
];
